p cnf 194 627
c ind 186 187 189 190 188 185 191 192 179 182 0
c ind 171 174 178 170 181 173 180 169 177 172 0
c ind 183 184 175 176 1 0
c ret 137 146 147 148 149 150 151 152 153 154 0
c ret 155 138 156 157 158 159 160 161 162 163 0
c ret 164 165 139 166 167 168 140 141 142 143 0
c ret 144 145 0
2 13 -75 0
2 3 -75 0
2 39 -75 0
-2 75 0
-2 -3 -13 -39 0
3 4 -9 11 179 0
3 4 9 11 -179 0
-3 -4 0
-3 -9 -179 0
-3 -11 0
-3 9 179 0
4 -5 -7 0
4 5 7 0
-4 5 -7 0
-4 -5 7 0
5 -6 -169 0
-5 169 0
-5 6 0
6 175 -176 0
6 -175 176 0
-6 -175 -176 0
-6 175 176 0
7 -8 -178 0
7 8 178 0
-7 -8 178 0
-7 8 -178 0
8 169 -170 0
8 -169 170 0
-8 -169 -170 0
-8 169 170 0
9 -10 -171 0
9 10 171 0
-9 -10 171 0
-9 10 -171 0
6 10 -169 -170 0
-10 169 0
-10 170 0
-6 -10 0
11 -12 180 0
11 12 -180 0
-11 -12 -180 0
-11 12 180 0
-6 12 172 0
6 12 -172 0
-6 -12 -172 0
6 -12 172 0
13 -14 -20 -26 -37 0
-13 37 0
-13 14 0
-13 26 0
-13 20 0
14 -15 -18 -181 186 0
14 15 -18 -181 -186 0
14 -15 18 181 186 0
14 15 18 181 -186 0
-14 -15 -186 0
-14 15 186 0
-14 -18 181 0
-14 18 -181 0
15 -16 -178 0
15 16 178 0
-15 -16 178 0
-15 16 -178 0
16 17 -177 0
-16 177 0
-16 -17 0
17 183 -184 0
17 -183 184 0
-17 -183 -184 0
-17 183 184 0
18 -19 173 0
18 19 -173 0
-18 -19 -173 0
-18 19 173 0
-6 19 -172 0
-19 172 0
6 -19 0
20 -21 22 24 177 0
20 21 22 24 -177 0
-20 -22 0
-20 21 177 0
-20 -24 0
-20 -21 -177 0
-6 21 169 0
6 21 -169 0
-6 -21 -169 0
6 -21 169 0
22 -23 188 0
-22 -188 0
-22 23 0
-17 23 180 0
17 23 -180 0
-17 -23 -180 0
17 -23 180 0
24 -25 185 0
-24 -185 0
-24 25 0
-17 25 -177 0
17 25 177 0
-17 -25 177 0
17 -25 -177 0
26 -27 -30 185 0
-25 26 -27 -30 0
-26 30 0
-26 27 0
25 -26 -185 0
27 -28 29 183 0
27 -28 29 176 0
-27 28 0
-27 -29 0
-27 -176 -183 0
28 -183 -184 0
28 175 192 0
28 175 -183 0
28 -184 192 0
-28 -175 184 0
-28 183 -192 0
29 184 191 0
-29 -184 0
-29 -191 0
30 -31 -32 -33 -36 0
-30 36 0
-30 31 0
-30 33 0
-30 32 0
31 175 176 0
-31 -175 0
-31 -176 0
32 169 170 0
-32 -169 0
-32 -170 0
33 -34 35 -176 0
33 -34 35 -183 0
-33 34 0
-33 -35 0
-33 176 183 0
34 -175 -192 0
34 183 184 0
34 184 -192 0
34 -175 183 0
-34 -183 192 0
-34 175 -184 0
35 -184 -191 0
-35 184 0
-35 191 0
36 171 172 173 174 0
-36 -174 0
-36 -173 0
-36 -171 0
-36 -172 0
37 -38 180 188 0
-17 37 38 -180 188 0
17 37 -38 -180 0
-17 37 -38 180 0
-37 38 180 0
-17 -37 -38 -180 0
-37 38 -188 0
17 -37 38 0
17 -37 180 -188 0
38 -181 -189 0
38 181 189 0
-38 181 -189 0
-38 -181 189 0
39 -40 -46 -48 187 0
39 -40 46 -48 -187 0
-39 48 0
-39 -46 -187 0
-39 40 0
-39 46 187 0
40 41 -43 -182 0
40 -41 -43 182 0
40 -41 182 -190 0
40 41 -182 -190 0
-40 -41 -182 0
-40 41 182 0
-40 43 190 0
41 -42 -174 0
41 42 174 0
-41 -42 174 0
-41 42 -174 0
-19 42 -173 0
-42 173 0
19 -42 0
43 -44 -182 0
43 44 182 0
-43 -44 182 0
-43 44 -182 0
44 -45 -181 0
-44 181 0
-44 45 0
-17 45 -180 0
-45 180 0
17 -45 0
46 -47 -179 0
46 47 179 0
-46 -47 179 0
-46 47 -179 0
-16 47 -178 0
-47 178 0
16 -47 0
43 48 -49 0
48 60 190 0
43 48 60 0
48 -49 190 0
-43 -48 -190 0
-48 49 -60 0
49 -50 -53 -54 -57 0
-49 57 0
-49 50 0
-49 54 0
-49 53 0
50 51 52 163 171 0
50 51 52 -163 -171 0
-50 -51 0
-50 -163 171 0
-50 -52 0
-50 163 -171 0
51 162 -170 0
-51 -162 0
-51 170 0
52 -168 176 0
-52 168 0
-52 -176 0
53 -165 167 -173 175 0
53 165 -167 173 -175 0
53 165 167 173 175 0
53 -165 -167 -173 -175 0
-53 -165 173 0
-53 165 -173 0
-53 167 -175 0
-53 -167 175 0
54 55 56 164 172 0
54 55 56 -164 -172 0
-54 -55 0
-54 -164 172 0
-54 -56 0
-54 164 -172 0
55 -166 174 0
-55 166 0
-55 -174 0
56 -162 170 0
-56 162 0
-56 -170 0
57 58 59 161 169 0
57 58 59 -161 -169 0
-57 -58 0
-57 -161 169 0
-57 -59 0
-57 161 -169 0
58 168 -176 0
-58 -168 0
-58 176 0
59 166 -174 0
-59 -166 0
-59 174 0
60 64 68 0
60 61 71 0
60 64 71 0
60 61 68 0
-60 -61 -64 0
-60 -68 -71 0
61 -62 -63 163 187 0
61 -62 -63 -163 -187 0
-61 63 0
-61 -163 187 0
-61 62 0
-61 163 -187 0
62 -166 186 0
62 -162 190 0
62 -162 -166 0
62 186 190 0
-62 166 -190 0
-62 162 -186 0
63 -165 167 -189 191 0
63 165 -167 189 -191 0
63 165 167 189 191 0
63 -165 -167 -189 -191 0
-63 -165 189 0
-63 165 -189 0
-63 167 -191 0
-63 -167 191 0
64 -65 -66 161 185 0
64 -65 -66 -161 -185 0
-64 66 0
-64 -161 185 0
-64 65 0
-64 161 -185 0
65 -164 -186 0
65 162 188 0
65 162 -164 0
65 -186 188 0
-65 -162 186 0
-65 164 -188 0
66 -67 -168 -192 0
66 -67 168 192 0
-66 67 0
-66 -168 192 0
-66 168 -192 0
67 164 166 0
67 -188 -190 0
67 164 -190 0
67 166 -188 0
-67 -164 188 0
-67 -166 190 0
68 -69 -70 164 180 0
68 -69 -70 -164 -180 0
-68 70 0
-68 -164 180 0
-68 69 0
-68 164 -180 0
69 -165 179 0
69 -163 181 0
69 -163 -165 0
69 179 181 0
-69 165 -181 0
-69 163 -179 0
70 -162 166 -178 182 0
70 162 -166 178 -182 0
70 162 166 178 182 0
70 -162 -166 -178 -182 0
-70 -162 178 0
-70 162 -178 0
-70 166 -182 0
-70 -166 182 0
71 -72 -73 167 183 0
71 -72 -73 -167 -183 0
-71 73 0
-71 -167 183 0
-71 72 0
-71 167 -183 0
72 -168 -179 0
72 163 184 0
72 163 -168 0
72 -179 184 0
-72 -163 179 0
-72 168 -184 0
73 -74 -161 -177 0
73 -74 161 177 0
-73 74 0
-73 -161 177 0
-73 161 -177 0
74 165 168 0
74 -181 -184 0
74 165 -184 0
74 168 -181 0
-74 -165 181 0
-74 -168 184 0
75 -76 -118 -127 -136 0
-75 136 0
-75 76 0
-75 127 0
-75 118 0
76 -77 -111 -114 166 0
76 -77 111 -114 -166 0
-76 114 0
-76 -111 -166 0
-76 77 0
-76 111 166 0
77 -78 -91 -95 -98 0
-77 98 0
-77 78 0
-77 95 0
-77 91 0
78 -79 88 157 0
78 -79 85 88 0
-78 79 0
-78 -88 0
-78 -85 -157 0
79 80 -82 83 148 0
79 -80 82 -83 -148 0
79 80 82 -83 148 0
79 -80 -82 83 -148 0
-79 -80 148 0
-79 80 -148 0
-79 82 83 0
-79 -82 -83 0
80 -81 140 0
80 81 -140 0
-80 -81 -140 0
-80 81 140 0
81 143 -144 0
81 -143 144 0
-81 -143 -144 0
-81 143 144 0
-81 82 -137 0
-82 137 0
81 -82 0
83 -84 -146 0
83 84 146 0
-83 -84 146 0
-83 84 -146 0
84 137 -138 0
84 -137 138 0
-84 -137 -138 0
-84 137 138 0
85 -86 -149 0
85 86 149 0
-85 -86 149 0
-85 86 -149 0
86 -87 -148 0
-86 148 0
-86 87 0
87 151 -152 0
87 -151 152 0
-87 -151 -152 0
-87 151 152 0
88 -89 -147 0
-88 147 0
-88 89 0
89 -90 -139 0
89 90 139 0
-89 -90 139 0
-89 90 -139 0
81 90 -137 -138 0
-90 137 0
-90 138 0
-81 -90 0
91 -92 -164 0
91 93 153 0
91 153 -164 0
91 -92 93 0
-91 92 -153 0
-91 -93 164 0
-87 92 -145 0
87 92 145 0
-87 -92 145 0
87 -92 -145 0
93 -94 156 0
93 94 -156 0
-93 -94 -156 0
-93 94 156 0
94 159 -160 0
94 -159 160 0
-94 -159 -160 0
-94 159 160 0
95 -145 161 0
95 -96 -97 0
95 -97 161 0
95 -96 -145 0
-95 96 -161 0
-95 97 145 0
-94 96 -153 0
94 96 153 0
-94 -96 153 0
94 -96 -153 0
-81 97 137 0
81 97 -137 0
-81 -97 -137 0
81 -97 137 0
98 -99 -104 164 0
-93 98 -99 -104 0
-98 104 0
-98 99 0
93 -98 -164 0
99 100 -101 102 -103 0
99 100 101 -102 -103 0
99 -100 101 -102 103 0
99 -100 -101 102 103 0
-99 -100 -103 0
-99 100 103 0
-99 -101 -102 0
-99 101 102 0
-81 100 -140 0
-100 140 0
81 -100 0
87 101 -145 0
-101 145 0
-87 -101 0
102 -146 -154 0
102 146 154 0
-102 146 -154 0
-102 -146 154 0
103 -141 -149 0
103 141 149 0
-103 141 -149 0
-103 -141 149 0
104 -105 -106 109 -110 0
-104 110 0
-104 105 0
-104 106 0
-104 -109 0
105 143 144 -151 -160 0
-105 -143 0
-105 160 0
-105 151 0
-105 -144 0
106 -107 -108 -159 0
106 -107 -108 168 0
-106 108 0
-106 107 0
-106 159 -168 0
107 137 138 0
-107 -137 0
-107 -138 0
108 139 140 141 142 0
-108 -142 0
-108 -141 0
-108 -139 0
-108 -140 0
109 -143 -159 0
109 152 159 0
109 152 168 0
109 143 -152 0
-109 -143 -152 159 0
-109 143 152 -159 -168 0
110 144 160 -167 0
110 151 -160 167 0
110 151 160 -167 0
110 144 -160 167 0
-110 160 167 0
-110 -160 -167 0
-110 -144 -151 0
111 -112 -158 0
111 112 158 0
-111 -112 158 0
-111 112 -158 0
112 -113 -157 0
-112 157 0
-112 113 0
-94 113 -156 0
-113 156 0
94 -113 0
114 -115 -117 162 0
114 115 -117 -162 0
-114 117 0
-114 115 162 0
-114 -115 -162 0
115 -116 -154 0
115 116 154 0
-115 -116 154 0
-115 116 -154 0
94 116 -153 0
-116 153 0
-94 -116 0
-85 117 -147 0
-89 117 -157 0
117 -147 -157 0
-85 -89 117 0
85 -117 157 0
89 -117 147 0
118 119 -122 124 163 0
118 119 122 124 -163 0
-118 -119 0
-118 -122 -163 0
-118 -124 0
-118 122 163 0
119 -120 150 0
-119 -150 0
-119 120 0
120 -121 142 0
120 121 -142 0
-120 -121 -142 0
-120 121 142 0
-100 121 -141 0
-121 141 0
100 -121 0
122 -123 -155 0
122 123 155 0
-122 -123 155 0
-122 123 -155 0
-116 123 -154 0
-123 154 0
116 -123 0
124 -125 -158 0
-124 158 0
-124 125 0
125 -126 -150 0
125 126 150 0
-125 -126 150 0
-125 126 -150 0
-86 126 -149 0
-126 149 0
86 -126 0
127 -128 -132 -134 -135 0
-127 135 0
-127 128 0
-127 134 0
-127 132 0
128 130 156 0
128 -129 131 0
128 -129 130 0
128 131 156 0
-128 129 -156 0
-128 -130 -131 0
-87 129 148 0
87 129 -148 0
-87 -129 -148 0
87 -129 148 0
-101 130 -146 0
-130 146 0
101 -130 0
131 -147 -155 0
131 147 155 0
-131 147 -155 0
-131 -147 155 0
-113 -131 132 133 0
113 -131 132 -133 0
113 -130 132 -133 0
-113 -130 132 133 0
-113 -132 -133 0
113 -132 133 0
130 131 -132 0
133 -157 -165 0
133 157 165 0
-133 157 -165 0
-133 -157 165 0
96 134 145 0
97 134 -161 0
134 145 -161 0
96 97 134 0
-97 -134 -145 0
-96 -134 161 0
92 135 -156 0
129 135 -153 0
135 -153 -156 0
92 129 135 0
-129 -135 156 0
-92 -135 153 0
-120 136 -158 0
-125 136 150 0
136 150 -158 0
-120 -125 136 0
125 -136 158 0
120 -136 -150 0
1 2 0
-1 -2 0
193 0

